NAME : LPS-n17-m33
COMMENT : (Lartu-Peter-Santi Plot, instance 5633 out of 39200. 17 customers.)
TYPE : CVRP
DIMENSION : 17
EDGE_WEIGHT_TYPE : EUC_2D
CAPACITY : 102
NODE_COORD_SECTION
 1 32 53
 2 28 39
 3 0 31
 4 4 65
 5 11 56
 6 83 60
 7 78 97
 8 10 73
 9 94 88
 10 14 45
 11 19 69
 12 89 96
 13 22 6
 14 40 52
 15 39 37
 16 57 87
 17 55 89
DEMAND_SECTION
1 0
2 76
3 40
4 65
5 53
6 39
7 101
8 34
9 26
10 50
11 42
12 41
13 23
14 15
15 9
16 59
17 83
DEPOT_SECTION
 1
 -1
EOF
